Mack/Bortfeldt(2008)
Bin-Packing-Problem
BP-RG/SBSBPP/SSSCSP
Testcase-ID	5
Problem-ID	24
no_item_types	8
no_items	2819
CONTAINER_DATA (l,w,h)	459	105	93
ITEMS_DATA:
Type	x	y	z	no_items
1	113	92	33	349
2	119	59	39	322
3	92	64	33	335
4	54	52	49	358
5	75	45	35	366
6	99	37	30	349
7	57	33	29	369
8	52	37	28	371
